p cnf 275 1975
49 84 104 125 0
45 116 124 130 155 0
133 141 142 167 0
39 98 100 148 0
86 89 92 95 131 0
82 101 110 0
67 75 96 127 147 0
109 140 153 157 217 0
113 136 161 221 0
29 32 164 170 0
51 80 173 234 0
139 158 0
18 117 162 176 0
168 178 181 182 0
66 121 185 194 0
64 93 145 0
60 62 73 0
58 143 151 0
57 111 135 159 0
55 56 163 0
52 54 71 102 0
48 126 0
44 115 175 0
40 42 43 134 0
97 105 119 184 0
37 87 91 99 0
34 36 61 0
33 137 150 0
28 31 0
20 21 23 25 26 0
19 50 53 69 78 0
76 81 103 0
46 107 129 138 0
17 177 179 0
65 118 0
63 186 188 189 0
144 191 192 193 196 0
112 198 200 201 0
202 203 204 0
205 206 0
72 207 0
106 123 154 0
166 208 210 211 250 0
149 212 214 0
30 171 215 0
216 218 220 0
70 79 169 222 223 0
77 174 224 0
108 227 228 229 230 0
232 233 235 0
187 236 0
74 120 190 237 0
146 195 197 238 239 0
152 199 241 244 0
-104 -130 0
-104 -141 0
-104 -242 0
-100 -104 0
-75 -104 0
-104 -109 0
-130 -141 0
-130 -242 0
-100 -130 0
-75 -130 0
-109 -130 0
-141 -242 0
-100 -141 0
-75 -141 0
-109 -141 0
-100 -242 0
-75 -242 0
-109 -242 0
-75 -100 0
-100 -109 0
-75 -109 0
-136 -164 0
-136 -243 0
-24 -136 0
-51 -136 0
-117 -136 0
-136 -168 0
-164 -243 0
-24 -164 0
-51 -164 0
-117 -164 0
-164 -168 0
-24 -243 0
-51 -243 0
-117 -243 0
-168 -243 0
-24 -51 0
-24 -117 0
-24 -168 0
-51 -117 0
-51 -168 0
-117 -168 0
-121 -145 0
-121 -245 0
-62 -121 0
-121 -143 0
-121 -246 0
-121 -247 0
-145 -245 0
-62 -145 0
-143 -145 0
-145 -246 0
-145 -247 0
-62 -245 0
-143 -245 0
-245 -246 0
-245 -247 0
-62 -143 0
-62 -246 0
-62 -247 0
-143 -246 0
-143 -247 0
-246 -247 0
-54 -248 0
-48 -54 0
-44 -54 0
-54 -134 0
-48 -248 0
-44 -248 0
-134 -248 0
-44 -48 0
-48 -134 0
-44 -134 0
-128 -150 0
-114 -128 0
-31 -128 0
-26 -128 0
-114 -150 0
-31 -150 0
-26 -150 0
-31 -114 0
-26 -114 0
-26 -31 0
-166 -249 0
-149 -166 0
-166 -222 0
-166 -174 0
-149 -249 0
-222 -249 0
-174 -249 0
-149 -222 0
-149 -174 0
-174 -222 0
-227 -232 0
-172 -227 0
-195 -227 0
-152 -227 0
-172 -232 0
-195 -232 0
-152 -232 0
-172 -195 0
-152 -172 0
-152 -195 0
-104 -136 0
-104 -121 0
-54 -104 0
-104 -128 0
-104 -166 0
-104 -227 0
-121 -136 0
-54 -136 0
-128 -136 0
-136 -166 0
-136 -227 0
-54 -121 0
-121 -128 0
-121 -166 0
-121 -227 0
-54 -128 0
-54 -166 0
-54 -227 0
-128 -166 0
-128 -227 0
-166 -227 0
-130 -164 0
-130 -145 0
-130 -248 0
-130 -150 0
-130 -249 0
-130 -232 0
-145 -164 0
-164 -248 0
-150 -164 0
-164 -249 0
-164 -232 0
-145 -248 0
-145 -150 0
-145 -249 0
-145 -232 0
-150 -248 0
-248 -249 0
-232 -248 0
-150 -249 0
-150 -232 0
-232 -249 0
-141 -243 0
-141 -245 0
-48 -141 0
-114 -141 0
-141 -149 0
-141 -172 0
-243 -245 0
-48 -243 0
-114 -243 0
-149 -243 0
-172 -243 0
-48 -245 0
-114 -245 0
-149 -245 0
-172 -245 0
-48 -114 0
-48 -149 0
-48 -172 0
-114 -149 0
-114 -172 0
-149 -172 0
-24 -242 0
-62 -242 0
-44 -242 0
-31 -242 0
-24 -62 0
-24 -44 0
-24 -31 0
-44 -62 0
-31 -62 0
-31 -44 0
-51 -100 0
-100 -143 0
-100 -134 0
-26 -100 0
-51 -143 0
-51 -134 0
-26 -51 0
-134 -143 0
-26 -143 0
-26 -134 0
-75 -117 0
-75 -246 0
-75 -222 0
-75 -195 0
-117 -246 0
-117 -222 0
-117 -195 0
-222 -246 0
-195 -246 0
-195 -222 0
-109 -168 0
-109 -247 0
-109 -174 0
-109 -152 0
-168 -247 0
-168 -174 0
-152 -168 0
-174 -247 0
-152 -247 0
-152 -174 0
-92 -251 0
-110 -251 0
-67 -251 0
-140 -251 0
-92 -110 0
-67 -92 0
-92 -140 0
-67 -110 0
-110 -140 0
-67 -140 0
-73 -135 0
-73 -163 0
-73 -252 0
-73 -253 0
-135 -163 0
-135 -252 0
-135 -253 0
-163 -252 0
-163 -253 0
-252 -253 0
-102 -115 0
-102 -119 0
-99 -102 0
-90 -102 0
-61 -102 0
-115 -119 0
-99 -115 0
-90 -115 0
-61 -115 0
-99 -119 0
-90 -119 0
-61 -119 0
-90 -99 0
-61 -99 0
-61 -90 0
-28 -254 0
-53 -254 0
-81 -254 0
-46 -254 0
-254 -255 0
-28 -53 0
-28 -81 0
-28 -46 0
-28 -255 0
-53 -81 0
-46 -53 0
-53 -255 0
-46 -81 0
-81 -255 0
-46 -255 0
-94 -177 0
-177 -191 0
-59 -177 0
-112 -177 0
-177 -202 0
-94 -191 0
-59 -94 0
-94 -112 0
-94 -202 0
-59 -191 0
-112 -191 0
-191 -202 0
-59 -112 0
-59 -202 0
-112 -202 0
-120 -146 0
-120 -244 0
-146 -244 0
-102 -254 0
-102 -177 0
-177 -254 0
-73 -251 0
-115 -251 0
-28 -251 0
-94 -251 0
-73 -115 0
-28 -73 0
-73 -94 0
-28 -115 0
-94 -115 0
-28 -94 0
-92 -135 0
-92 -119 0
-53 -92 0
-92 -191 0
-119 -135 0
-53 -135 0
-135 -191 0
-53 -119 0
-119 -191 0
-53 -191 0
-110 -163 0
-99 -110 0
-81 -110 0
-59 -110 0
-110 -120 0
-99 -163 0
-81 -163 0
-59 -163 0
-120 -163 0
-81 -99 0
-59 -99 0
-99 -120 0
-59 -81 0
-81 -120 0
-59 -120 0
-67 -252 0
-67 -90 0
-46 -67 0
-67 -112 0
-67 -146 0
-90 -252 0
-46 -252 0
-112 -252 0
-146 -252 0
-46 -90 0
-90 -112 0
-90 -146 0
-46 -112 0
-46 -146 0
-112 -146 0
-140 -253 0
-61 -140 0
-140 -255 0
-140 -202 0
-140 -244 0
-61 -253 0
-253 -255 0
-202 -253 0
-244 -253 0
-61 -255 0
-61 -202 0
-61 -244 0
-202 -255 0
-244 -255 0
-202 -244 0
-84 -155 0
-37 -43 0
-43 -132 0
-37 -132 0
-186 -240 0
-186 -198 0
-198 -240 0
-68 -250 0
-250 -256 0
-223 -250 0
-68 -256 0
-68 -223 0
-223 -256 0
-228 -233 0
-74 -228 0
-228 -238 0
-74 -233 0
-233 -238 0
-74 -238 0
-84 -250 0
-84 -228 0
-228 -250 0
-68 -155 0
-155 -233 0
-68 -233 0
-43 -186 0
-37 -240 0
-37 -256 0
-37 -74 0
-240 -256 0
-74 -240 0
-74 -256 0
-132 -198 0
-132 -223 0
-132 -238 0
-198 -223 0
-198 -238 0
-223 -238 0
-161 -257 0
-139 -161 0
-161 -176 0
-161 -178 0
-139 -257 0
-176 -257 0
-178 -257 0
-139 -176 0
-139 -178 0
-176 -178 0
-185 -258 0
-56 -185 0
-185 -259 0
-185 -260 0
-56 -258 0
-258 -259 0
-258 -260 0
-56 -259 0
-56 -260 0
-259 -260 0
-19 -25 0
-25 -103 0
-25 -129 0
-25 -231 0
-19 -103 0
-19 -129 0
-19 -231 0
-103 -129 0
-103 -231 0
-129 -231 0
-188 -192 0
-188 -261 0
-188 -200 0
-188 -203 0
-192 -261 0
-192 -200 0
-192 -203 0
-200 -261 0
-203 -261 0
-200 -203 0
-72 -262 0
-156 -262 0
-262 -263 0
-83 -262 0
-154 -262 0
-88 -262 0
-72 -156 0
-72 -263 0
-72 -83 0
-72 -154 0
-72 -88 0
-156 -263 0
-83 -156 0
-154 -156 0
-88 -156 0
-83 -263 0
-154 -263 0
-88 -263 0
-83 -154 0
-83 -88 0
-88 -154 0
-208 -212 0
-208 -215 0
-208 -216 0
-22 -208 0
-79 -208 0
-77 -208 0
-212 -215 0
-212 -216 0
-22 -212 0
-79 -212 0
-77 -212 0
-215 -216 0
-22 -215 0
-79 -215 0
-77 -215 0
-22 -216 0
-79 -216 0
-77 -216 0
-22 -79 0
-22 -77 0
-77 -79 0
-108 -180 0
-108 -264 0
-108 -236 0
-108 -190 0
-108 -197 0
-108 -241 0
-180 -264 0
-180 -236 0
-180 -190 0
-180 -197 0
-180 -241 0
-236 -264 0
-190 -264 0
-197 -264 0
-241 -264 0
-190 -236 0
-197 -236 0
-236 -241 0
-190 -197 0
-190 -241 0
-197 -241 0
-161 -185 0
-161 -262 0
-161 -208 0
-108 -161 0
-185 -262 0
-185 -208 0
-108 -185 0
-208 -262 0
-108 -262 0
-108 -208 0
-257 -258 0
-72 -257 0
-212 -257 0
-180 -257 0
-72 -258 0
-212 -258 0
-180 -258 0
-72 -212 0
-72 -180 0
-180 -212 0
-25 -188 0
-25 -156 0
-25 -215 0
-25 -264 0
-156 -188 0
-188 -215 0
-188 -264 0
-156 -215 0
-156 -264 0
-215 -264 0
-19 -192 0
-19 -263 0
-19 -216 0
-19 -236 0
-192 -263 0
-192 -216 0
-192 -236 0
-216 -263 0
-236 -263 0
-216 -236 0
-56 -139 0
-103 -139 0
-139 -261 0
-83 -139 0
-22 -139 0
-139 -190 0
-56 -103 0
-56 -261 0
-56 -83 0
-22 -56 0
-56 -190 0
-103 -261 0
-83 -103 0
-22 -103 0
-103 -190 0
-83 -261 0
-22 -261 0
-190 -261 0
-22 -83 0
-83 -190 0
-22 -190 0
-176 -259 0
-129 -176 0
-176 -200 0
-154 -176 0
-79 -176 0
-176 -197 0
-129 -259 0
-200 -259 0
-154 -259 0
-79 -259 0
-197 -259 0
-129 -200 0
-129 -154 0
-79 -129 0
-129 -197 0
-154 -200 0
-79 -200 0
-197 -200 0
-79 -154 0
-154 -197 0
-79 -197 0
-178 -260 0
-178 -231 0
-178 -203 0
-88 -178 0
-77 -178 0
-178 -241 0
-231 -260 0
-203 -260 0
-88 -260 0
-77 -260 0
-241 -260 0
-203 -231 0
-88 -231 0
-77 -231 0
-231 -241 0
-88 -203 0
-77 -203 0
-203 -241 0
-77 -88 0
-88 -241 0
-77 -241 0
-45 -49 0
-49 -133 0
-49 -265 0
-49 -95 0
-49 -101 0
-49 -127 0
-45 -133 0
-45 -265 0
-45 -95 0
-45 -101 0
-45 -127 0
-133 -265 0
-95 -133 0
-101 -133 0
-127 -133 0
-95 -265 0
-101 -265 0
-127 -265 0
-95 -101 0
-95 -127 0
-101 -127 0
-32 -113 0
-27 -113 0
-113 -266 0
-113 -267 0
-113 -158 0
-113 -162 0
-27 -32 0
-32 -266 0
-32 -267 0
-32 -158 0
-32 -162 0
-27 -266 0
-27 -267 0
-27 -158 0
-27 -162 0
-266 -267 0
-158 -266 0
-162 -266 0
-158 -267 0
-162 -267 0
-158 -162 0
-64 -66 0
-66 -268 0
-60 -66 0
-66 -159 0
-55 -66 0
-66 -269 0
-64 -268 0
-60 -64 0
-64 -159 0
-55 -64 0
-64 -269 0
-60 -268 0
-159 -268 0
-55 -268 0
-268 -269 0
-60 -159 0
-55 -60 0
-60 -269 0
-55 -159 0
-159 -269 0
-55 -269 0
-52 -270 0
-52 -126 0
-52 -175 0
-52 -184 0
-126 -270 0
-175 -270 0
-184 -270 0
-126 -175 0
-126 -184 0
-175 -184 0
-17 -183 0
-17 -65 0
-17 -271 0
-17 -193 0
-65 -183 0
-183 -271 0
-183 -193 0
-65 -271 0
-65 -193 0
-193 -271 0
-205 -272 0
-207 -272 0
-41 -272 0
-106 -272 0
-205 -207 0
-41 -205 0
-106 -205 0
-41 -207 0
-106 -207 0
-41 -106 0
-35 -210 0
-210 -214 0
-160 -210 0
-70 -210 0
-35 -214 0
-35 -160 0
-35 -70 0
-160 -214 0
-70 -214 0
-70 -160 0
-49 -113 0
-49 -66 0
-49 -52 0
-17 -49 0
-49 -272 0
-49 -210 0
-66 -113 0
-52 -113 0
-17 -113 0
-113 -272 0
-113 -210 0
-52 -66 0
-17 -66 0
-66 -272 0
-66 -210 0
-17 -52 0
-52 -272 0
-52 -210 0
-17 -272 0
-17 -210 0
-210 -272 0
-32 -45 0
-45 -64 0
-45 -270 0
-45 -183 0
-45 -205 0
-35 -45 0
-32 -64 0
-32 -270 0
-32 -183 0
-32 -205 0
-32 -35 0
-64 -270 0
-64 -183 0
-64 -205 0
-35 -64 0
-183 -270 0
-205 -270 0
-35 -270 0
-183 -205 0
-35 -183 0
-35 -205 0
-27 -133 0
-133 -268 0
-126 -133 0
-65 -133 0
-133 -207 0
-133 -214 0
-27 -268 0
-27 -126 0
-27 -65 0
-27 -207 0
-27 -214 0
-126 -268 0
-65 -268 0
-207 -268 0
-214 -268 0
-65 -126 0
-126 -207 0
-126 -214 0
-65 -207 0
-65 -214 0
-207 -214 0
-265 -266 0
-60 -265 0
-175 -265 0
-265 -271 0
-60 -266 0
-175 -266 0
-266 -271 0
-60 -175 0
-60 -271 0
-175 -271 0
-95 -267 0
-95 -159 0
-95 -184 0
-95 -193 0
-159 -267 0
-184 -267 0
-193 -267 0
-159 -184 0
-159 -193 0
-184 -193 0
-101 -158 0
-55 -101 0
-41 -101 0
-101 -160 0
-55 -158 0
-41 -158 0
-158 -160 0
-41 -55 0
-55 -160 0
-41 -160 0
-127 -162 0
-127 -269 0
-106 -127 0
-70 -127 0
-162 -269 0
-106 -162 0
-70 -162 0
-106 -269 0
-70 -269 0
-70 -106 0
-116 -142 0
-98 -116 0
-89 -116 0
-116 -217 0
-98 -142 0
-89 -142 0
-142 -217 0
-89 -98 0
-98 -217 0
-89 -217 0
-29 -219 0
-29 -80 0
-29 -47 0
-29 -181 0
-80 -219 0
-47 -219 0
-181 -219 0
-47 -80 0
-80 -181 0
-47 -181 0
-93 -273 0
-58 -93 0
-93 -111 0
-93 -274 0
-58 -273 0
-111 -273 0
-273 -274 0
-58 -111 0
-58 -274 0
-111 -274 0
-137 -165 0
-23 -137 0
-50 -137 0
-23 -165 0
-50 -165 0
-23 -50 0
-118 -122 0
-63 -122 0
-122 -144 0
-63 -118 0
-118 -144 0
-63 -144 0
-29 -116 0
-93 -116 0
-116 -137 0
-116 -122 0
-29 -93 0
-29 -137 0
-29 -122 0
-93 -137 0
-93 -122 0
-122 -137 0
-142 -219 0
-142 -273 0
-142 -165 0
-118 -142 0
-219 -273 0
-165 -219 0
-118 -219 0
-165 -273 0
-118 -273 0
-118 -165 0
-80 -98 0
-58 -98 0
-23 -98 0
-63 -98 0
-58 -80 0
-23 -80 0
-63 -80 0
-23 -58 0
-58 -63 0
-23 -63 0
-47 -89 0
-89 -111 0
-50 -89 0
-89 -144 0
-47 -111 0
-47 -50 0
-47 -144 0
-50 -111 0
-111 -144 0
-50 -144 0
-181 -217 0
-217 -274 0
-181 -274 0
-39 -124 0
-124 -131 0
-39 -131 0
-170 -234 0
-170 -225 0
-225 -234 0
-30 -218 0
-124 -170 0
-39 -234 0
-30 -39 0
-30 -234 0
-131 -225 0
-131 -218 0
-218 -225 0
-82 -96 0
-82 -153 0
-96 -153 0
-71 -85 0
-42 -71 0
-71 -97 0
-71 -87 0
-71 -209 0
-36 -71 0
-42 -85 0
-85 -97 0
-85 -87 0
-85 -209 0
-36 -85 0
-42 -97 0
-42 -87 0
-42 -209 0
-36 -42 0
-87 -97 0
-97 -209 0
-36 -97 0
-87 -209 0
-36 -87 0
-36 -209 0
-33 -213 0
-21 -213 0
-78 -213 0
-76 -213 0
-107 -213 0
-213 -275 0
-21 -33 0
-33 -78 0
-33 -76 0
-33 -107 0
-33 -275 0
-21 -78 0
-21 -76 0
-21 -107 0
-21 -275 0
-76 -78 0
-78 -107 0
-78 -275 0
-76 -107 0
-76 -275 0
-107 -275 0
-16 -179 0
-179 -189 0
-179 -196 0
-15 -179 0
-179 -201 0
-179 -204 0
-16 -189 0
-16 -196 0
-15 -16 0
-16 -201 0
-16 -204 0
-189 -196 0
-15 -189 0
-189 -201 0
-189 -204 0
-15 -196 0
-196 -201 0
-196 -204 0
-15 -201 0
-15 -204 0
-201 -204 0
-14 -206 0
-13 -14 0
-12 -14 0
-11 -14 0
-14 -123 0
-10 -14 0
-13 -206 0
-12 -206 0
-11 -206 0
-123 -206 0
-10 -206 0
-12 -13 0
-11 -13 0
-13 -123 0
-10 -13 0
-11 -12 0
-12 -123 0
-10 -12 0
-11 -123 0
-10 -11 0
-10 -123 0
-38 -211 0
-171 -211 0
-211 -220 0
-9 -211 0
-169 -211 0
-211 -224 0
-38 -171 0
-38 -220 0
-9 -38 0
-38 -169 0
-38 -224 0
-171 -220 0
-9 -171 0
-169 -171 0
-171 -224 0
-9 -220 0
-169 -220 0
-220 -224 0
-9 -169 0
-9 -224 0
-169 -224 0
-229 -235 0
-8 -229 0
-187 -229 0
-229 -237 0
-229 -239 0
-199 -229 0
-8 -235 0
-187 -235 0
-235 -237 0
-235 -239 0
-199 -235 0
-8 -187 0
-8 -237 0
-8 -239 0
-8 -199 0
-187 -237 0
-187 -239 0
-187 -199 0
-237 -239 0
-199 -237 0
-199 -239 0
-71 -213 0
-71 -179 0
-14 -71 0
-71 -211 0
-71 -229 0
-179 -213 0
-14 -213 0
-211 -213 0
-213 -229 0
-14 -179 0
-179 -211 0
-179 -229 0
-14 -211 0
-14 -229 0
-211 -229 0
-33 -85 0
-16 -85 0
-85 -206 0
-38 -85 0
-85 -235 0
-16 -33 0
-33 -206 0
-33 -38 0
-33 -235 0
-16 -206 0
-16 -38 0
-16 -235 0
-38 -206 0
-206 -235 0
-38 -235 0
-21 -42 0
-42 -189 0
-13 -42 0
-42 -171 0
-8 -42 0
-21 -189 0
-13 -21 0
-21 -171 0
-8 -21 0
-13 -189 0
-171 -189 0
-8 -189 0
-13 -171 0
-8 -13 0
-8 -171 0
-78 -97 0
-97 -196 0
-12 -97 0
-97 -220 0
-97 -187 0
-78 -196 0
-12 -78 0
-78 -220 0
-78 -187 0
-12 -196 0
-196 -220 0
-187 -196 0
-12 -220 0
-12 -187 0
-187 -220 0
-82 -87 0
-76 -82 0
-15 -82 0
-11 -82 0
-9 -82 0
-82 -237 0
-76 -87 0
-15 -87 0
-11 -87 0
-9 -87 0
-87 -237 0
-15 -76 0
-11 -76 0
-9 -76 0
-76 -237 0
-11 -15 0
-9 -15 0
-15 -237 0
-9 -11 0
-11 -237 0
-9 -237 0
-96 -209 0
-96 -107 0
-96 -201 0
-96 -123 0
-96 -169 0
-96 -239 0
-107 -209 0
-201 -209 0
-123 -209 0
-169 -209 0
-209 -239 0
-107 -201 0
-107 -123 0
-107 -169 0
-107 -239 0
-123 -201 0
-169 -201 0
-201 -239 0
-123 -169 0
-123 -239 0
-169 -239 0
-36 -153 0
-153 -275 0
-153 -204 0
-10 -153 0
-153 -224 0
-153 -199 0
-36 -275 0
-36 -204 0
-10 -36 0
-36 -224 0
-36 -199 0
-204 -275 0
-10 -275 0
-224 -275 0
-199 -275 0
-10 -204 0
-204 -224 0
-199 -204 0
-10 -224 0
-10 -199 0
-199 -224 0
-125 -167 0
-125 -148 0
-86 -125 0
-125 -147 0
-125 -157 0
-148 -167 0
-86 -167 0
-147 -167 0
-157 -167 0
-86 -148 0
-147 -148 0
-148 -157 0
-86 -147 0
-86 -157 0
-147 -157 0
-221 -226 0
-173 -221 0
-7 -221 0
-18 -221 0
-182 -221 0
-173 -226 0
-7 -226 0
-18 -226 0
-182 -226 0
-7 -173 0
-18 -173 0
-173 -182 0
-7 -18 0
-7 -182 0
-18 -182 0
-6 -194 0
-151 -194 0
-57 -194 0
-5 -194 0
-4 -194 0
-6 -151 0
-6 -57 0
-5 -6 0
-4 -6 0
-57 -151 0
-5 -151 0
-4 -151 0
-5 -57 0
-4 -57 0
-4 -5 0
-40 -105 0
-3 -40 0
-34 -40 0
-3 -105 0
-34 -105 0
-3 -34 0
-20 -69 0
-20 -138 0
-2 -20 0
-69 -138 0
-2 -69 0
-2 -138 0
-1 -230 0
-125 -221 0
-125 -194 0
-125 -230 0
-194 -221 0
-221 -230 0
-194 -230 0
-167 -226 0
-6 -167 0
-1 -167 0
-6 -226 0
-1 -226 0
-1 -6 0
-148 -173 0
-148 -151 0
-40 -148 0
-20 -148 0
-151 -173 0
-40 -173 0
-20 -173 0
-40 -151 0
-20 -151 0
-20 -40 0
-7 -86 0
-57 -86 0
-86 -105 0
-69 -86 0
-7 -57 0
-7 -105 0
-7 -69 0
-57 -105 0
-57 -69 0
-69 -105 0
-18 -147 0
-5 -147 0
-3 -147 0
-138 -147 0
-5 -18 0
-3 -18 0
-18 -138 0
-3 -5 0
-5 -138 0
-3 -138 0
-157 -182 0
-4 -157 0
-34 -157 0
-2 -157 0
-4 -182 0
-34 -182 0
-2 -182 0
-4 -34 0
-2 -4 0
-2 -34 0
-104 -130 0
-104 -141 0
-104 -136 0
-104 -164 0
-104 -243 0
-104 -121 0
-104 -145 0
-104 -245 0
-130 -141 0
-130 -136 0
-130 -164 0
-130 -243 0
-121 -130 0
-130 -145 0
-130 -245 0
-136 -141 0
-141 -164 0
-141 -243 0
-121 -141 0
-141 -145 0
-141 -245 0
-136 -164 0
-136 -243 0
-121 -136 0
-136 -145 0
-136 -245 0
-164 -243 0
-121 -164 0
-145 -164 0
-164 -245 0
-121 -243 0
-145 -243 0
-243 -245 0
-121 -145 0
-121 -245 0
-145 -245 0
-84 -155 0
-161 -257 0
-161 -185 0
-161 -258 0
-185 -257 0
-257 -258 0
-185 -258 0
-45 -49 0
-49 -133 0
-49 -113 0
-32 -49 0
-27 -49 0
-49 -66 0
-49 -64 0
-49 -268 0
-45 -133 0
-45 -113 0
-32 -45 0
-27 -45 0
-45 -66 0
-45 -64 0
-45 -268 0
-113 -133 0
-32 -133 0
-27 -133 0
-66 -133 0
-64 -133 0
-133 -268 0
-32 -113 0
-27 -113 0
-66 -113 0
-64 -113 0
-113 -268 0
-27 -32 0
-32 -66 0
-32 -64 0
-32 -268 0
-27 -66 0
-27 -64 0
-27 -268 0
-64 -66 0
-66 -268 0
-64 -268 0
-116 -142 0
-29 -116 0
-116 -219 0
-93 -116 0
-116 -273 0
-29 -142 0
-142 -219 0
-93 -142 0
-142 -273 0
-29 -219 0
-29 -93 0
-29 -273 0
-93 -219 0
-219 -273 0
-93 -273 0
-124 -170 0
-125 -167 0
-125 -221 0
-125 -226 0
-125 -194 0
-6 -125 0
-167 -221 0
-167 -226 0
-167 -194 0
-6 -167 0
-221 -226 0
-194 -221 0
-6 -221 0
-194 -226 0
-6 -226 0
-6 -194 0
-100 -242 0
-24 -242 0
-51 -242 0
-62 -242 0
-143 -242 0
-24 -100 0
-51 -100 0
-62 -100 0
-100 -143 0
-24 -51 0
-24 -62 0
-24 -143 0
-51 -62 0
-51 -143 0
-62 -143 0
-92 -251 0
-73 -251 0
-135 -251 0
-73 -92 0
-92 -135 0
-73 -135 0
-95 -265 0
-265 -266 0
-265 -267 0
-60 -265 0
-159 -265 0
-95 -266 0
-95 -267 0
-60 -95 0
-95 -159 0
-266 -267 0
-60 -266 0
-159 -266 0
-60 -267 0
-159 -267 0
-60 -159 0
-89 -98 0
-80 -98 0
-47 -98 0
-58 -98 0
-98 -111 0
-80 -89 0
-47 -89 0
-58 -89 0
-89 -111 0
-47 -80 0
-58 -80 0
-80 -111 0
-47 -58 0
-47 -111 0
-58 -111 0
-39 -131 0
-39 -234 0
-39 -225 0
-131 -234 0
-131 -225 0
-225 -234 0
-86 -148 0
-148 -173 0
-7 -148 0
-148 -151 0
-57 -148 0
-86 -173 0
-7 -86 0
-86 -151 0
-57 -86 0
-7 -173 0
-151 -173 0
-57 -173 0
-7 -151 0
-7 -57 0
-57 -151 0
-75 -109 0
-75 -117 0
-75 -168 0
-75 -246 0
-75 -247 0
-109 -117 0
-109 -168 0
-109 -246 0
-109 -247 0
-117 -168 0
-117 -246 0
-117 -247 0
-168 -246 0
-168 -247 0
-246 -247 0
-67 -110 0
-110 -140 0
-110 -163 0
-110 -252 0
-110 -253 0
-67 -140 0
-67 -163 0
-67 -252 0
-67 -253 0
-140 -163 0
-140 -252 0
-140 -253 0
-163 -252 0
-163 -253 0
-252 -253 0
-139 -176 0
-139 -178 0
-56 -139 0
-139 -259 0
-139 -260 0
-176 -178 0
-56 -176 0
-176 -259 0
-176 -260 0
-56 -178 0
-178 -259 0
-178 -260 0
-56 -259 0
-56 -260 0
-259 -260 0
-101 -127 0
-101 -158 0
-101 -162 0
-55 -101 0
-101 -269 0
-127 -158 0
-127 -162 0
-55 -127 0
-127 -269 0
-158 -162 0
-55 -158 0
-158 -269 0
-55 -162 0
-162 -269 0
-55 -269 0
-181 -217 0
-217 -274 0
-181 -274 0
-82 -96 0
-82 -153 0
-96 -153 0
-147 -157 0
-18 -147 0
-147 -182 0
-5 -147 0
-4 -147 0
-18 -157 0
-157 -182 0
-5 -157 0
-4 -157 0
-18 -182 0
-5 -18 0
-4 -18 0
-5 -182 0
-4 -182 0
-4 -5 0
-54 -248 0
-48 -54 0
-54 -128 0
-54 -150 0
-54 -114 0
-48 -248 0
-128 -248 0
-150 -248 0
-114 -248 0
-48 -128 0
-48 -150 0
-48 -114 0
-128 -150 0
-114 -128 0
-114 -150 0
-102 -254 0
-102 -177 0
-177 -254 0
-52 -270 0
-52 -126 0
-17 -52 0
-52 -183 0
-52 -65 0
-126 -270 0
-17 -270 0
-183 -270 0
-65 -270 0
-17 -126 0
-126 -183 0
-65 -126 0
-17 -183 0
-17 -65 0
-65 -183 0
-137 -165 0
-122 -137 0
-118 -137 0
-122 -165 0
-118 -165 0
-118 -122 0
-71 -85 0
-71 -213 0
-33 -71 0
-71 -179 0
-16 -71 0
-85 -213 0
-33 -85 0
-85 -179 0
-16 -85 0
-33 -213 0
-179 -213 0
-16 -213 0
-33 -179 0
-16 -33 0
-16 -179 0
-44 -134 0
-31 -44 0
-26 -44 0
-31 -134 0
-26 -134 0
-26 -31 0
-115 -119 0
-28 -115 0
-53 -115 0
-94 -115 0
-115 -191 0
-28 -119 0
-53 -119 0
-94 -119 0
-119 -191 0
-28 -53 0
-28 -94 0
-28 -191 0
-53 -94 0
-53 -191 0
-94 -191 0
-43 -186 0
-19 -25 0
-25 -188 0
-25 -192 0
-19 -188 0
-19 -192 0
-188 -192 0
-175 -184 0
-175 -271 0
-175 -193 0
-184 -271 0
-184 -193 0
-193 -271 0
-23 -50 0
-23 -63 0
-23 -144 0
-50 -63 0
-50 -144 0
-63 -144 0
-42 -97 0
-21 -42 0
-42 -78 0
-42 -189 0
-42 -196 0
-21 -97 0
-78 -97 0
-97 -189 0
-97 -196 0
-21 -78 0
-21 -189 0
-21 -196 0
-78 -189 0
-78 -196 0
-189 -196 0
-40 -105 0
-20 -40 0
-40 -69 0
-20 -105 0
-69 -105 0
-20 -69 0
-90 -99 0
-61 -99 0
-81 -99 0
-46 -99 0
-99 -255 0
-59 -99 0
-99 -112 0
-99 -202 0
-61 -90 0
-81 -90 0
-46 -90 0
-90 -255 0
-59 -90 0
-90 -112 0
-90 -202 0
-61 -81 0
-46 -61 0
-61 -255 0
-59 -61 0
-61 -112 0
-61 -202 0
-46 -81 0
-81 -255 0
-59 -81 0
-81 -112 0
-81 -202 0
-46 -255 0
-46 -59 0
-46 -112 0
-46 -202 0
-59 -255 0
-112 -255 0
-202 -255 0
-59 -112 0
-59 -202 0
-112 -202 0
-37 -132 0
-37 -240 0
-37 -198 0
-132 -240 0
-132 -198 0
-198 -240 0
-103 -129 0
-103 -231 0
-103 -261 0
-103 -200 0
-103 -203 0
-129 -231 0
-129 -261 0
-129 -200 0
-129 -203 0
-231 -261 0
-200 -231 0
-203 -231 0
-200 -261 0
-203 -261 0
-200 -203 0
-87 -209 0
-36 -87 0
-76 -87 0
-87 -107 0
-87 -275 0
-15 -87 0
-87 -201 0
-87 -204 0
-36 -209 0
-76 -209 0
-107 -209 0
-209 -275 0
-15 -209 0
-201 -209 0
-204 -209 0
-36 -76 0
-36 -107 0
-36 -275 0
-15 -36 0
-36 -201 0
-36 -204 0
-76 -107 0
-76 -275 0
-15 -76 0
-76 -201 0
-76 -204 0
-107 -275 0
-15 -107 0
-107 -201 0
-107 -204 0
-15 -275 0
-201 -275 0
-204 -275 0
-15 -201 0
-15 -204 0
-201 -204 0
-3 -34 0
-3 -138 0
-2 -3 0
-34 -138 0
-2 -34 0
-2 -138 0
-166 -249 0
-149 -166 0
-166 -227 0
-166 -232 0
-166 -172 0
-149 -249 0
-227 -249 0
-232 -249 0
-172 -249 0
-149 -227 0
-149 -232 0
-149 -172 0
-227 -232 0
-172 -227 0
-172 -232 0
-68 -250 0
-228 -250 0
-233 -250 0
-68 -228 0
-68 -233 0
-228 -233 0
-72 -262 0
-208 -262 0
-212 -262 0
-108 -262 0
-180 -262 0
-72 -208 0
-72 -212 0
-72 -108 0
-72 -180 0
-208 -212 0
-108 -208 0
-180 -208 0
-108 -212 0
-180 -212 0
-108 -180 0
-205 -272 0
-207 -272 0
-210 -272 0
-35 -272 0
-214 -272 0
-205 -207 0
-205 -210 0
-35 -205 0
-205 -214 0
-207 -210 0
-35 -207 0
-207 -214 0
-35 -210 0
-210 -214 0
-35 -214 0
-14 -206 0
-14 -211 0
-14 -38 0
-14 -229 0
-14 -235 0
-206 -211 0
-38 -206 0
-206 -229 0
-206 -235 0
-38 -211 0
-211 -229 0
-211 -235 0
-38 -229 0
-38 -235 0
-229 -235 0
-1 -230 0
-156 -263 0
-156 -215 0
-156 -216 0
-156 -264 0
-156 -236 0
-215 -263 0
-216 -263 0
-263 -264 0
-236 -263 0
-215 -216 0
-215 -264 0
-215 -236 0
-216 -264 0
-216 -236 0
-236 -264 0
-30 -218 0
-12 -13 0
-13 -171 0
-13 -220 0
-8 -13 0
-13 -187 0
-12 -171 0
-12 -220 0
-8 -12 0
-12 -187 0
-171 -220 0
-8 -171 0
-171 -187 0
-8 -220 0
-187 -220 0
-8 -187 0
-174 -222 0
-195 -222 0
-152 -222 0
-174 -195 0
-152 -174 0
-152 -195 0
-120 -146 0
-120 -244 0
-146 -244 0
-223 -256 0
-74 -256 0
-238 -256 0
-74 -223 0
-223 -238 0
-74 -238 0
-83 -154 0
-83 -88 0
-22 -83 0
-79 -83 0
-77 -83 0
-83 -190 0
-83 -197 0
-83 -241 0
-88 -154 0
-22 -154 0
-79 -154 0
-77 -154 0
-154 -190 0
-154 -197 0
-154 -241 0
-22 -88 0
-79 -88 0
-77 -88 0
-88 -190 0
-88 -197 0
-88 -241 0
-22 -79 0
-22 -77 0
-22 -190 0
-22 -197 0
-22 -241 0
-77 -79 0
-79 -190 0
-79 -197 0
-79 -241 0
-77 -190 0
-77 -197 0
-77 -241 0
-190 -197 0
-190 -241 0
-197 -241 0
-41 -106 0
-41 -160 0
-41 -70 0
-106 -160 0
-70 -106 0
-70 -160 0
-11 -123 0
-10 -11 0
-9 -11 0
-11 -169 0
-11 -224 0
-11 -237 0
-11 -239 0
-11 -199 0
-10 -123 0
-9 -123 0
-123 -169 0
-123 -224 0
-123 -237 0
-123 -239 0
-123 -199 0
-9 -10 0
-10 -169 0
-10 -224 0
-10 -237 0
-10 -239 0
-10 -199 0
-9 -169 0
-9 -224 0
-9 -237 0
-9 -239 0
-9 -199 0
-169 -224 0
-169 -237 0
-169 -239 0
-169 -199 0
-224 -237 0
-224 -239 0
-199 -224 0
-237 -239 0
-199 -237 0
-199 -239 0
